SYSTEM = opti 
PREC = Normal
ENCUT = 500
EDIFF = 1E-6
EDIFFG = -1E-2
ISTART = 0
IBRION = 2
ISIF = 2

NSW = 88
ISMEAR = 1
SIGMA = 0.02
POTIM = 0.02

NPAR = 2
LCHARG = FALSE
LWAVE = FALSE
