SYSTEM = opti 
PREC = Normal
ENCUT = 500
EDIFF = 1E-5
EDIFFG = 1E-4
ISTART = 0
IBRION = 2
ISIF = 3 

NSW = 88
ISMEAR = 1
SIGMA = 0.02
POTIM = 0.25

NPAR = 2
LCHARG = FALSE
LWAVE = FALSE
