SYSTEM = opti 
PREC = Normal
ENCUT = 500
EDIFF = 1E-4
EDIFFG = -0.01
ISTART = 0
IBRION = 2
ISIF = 2

NSW = 88
ISMEAR = 1
SIGMA = 0.06
POTIM = 0.2

NPAR = 2
LCHARG = FALSE
LWAVE = FALSE
