   PREC  = High 
  ISTART = 0 
 ICHARG  = 2
 PSTRESS = 0
  ENCUT  = 500
  ISMEAR = 0
  EDIFF  = 1E-8  
  NSW    = 0
 IBRION  = 2
 ISIF    = 2
 NPAR=2
 
# LAECHG = .TRUE.  # bader charge analyze
LWAVE = .TRUE.
LCHARGE = .TRUE.


