Kpoints from vasprun.xml
0
Gamma
24 24 1
