Kpoints from vasprun.xml
0
Gamma
20 20 1
