Kpoints from vasprun.xml
0
Gamma
14 14 1
