SYSTEM  = absorp
ENCUT   = 450
ISTART  = 1
ICHARG  = 2
NSW     = 0
IBRION  = -1
EDIFF   = 1E-5
EDIFFG  = -0.01
SIGMA   = 0.1
ISMEAR  = 0
IVDW    = 11

LHFCALC  = .TRUE.
HFSCREEN = 0.2



