SYSTEM = absorp
ENCUT  = 450
ISTART = 0 
PREC   = Accurate
IBRION = -1
EDIFF  = 1E-5
EDIFFG = -0.01
POTIM  = 0.1
IVDW   = 11

