GaN                                     
   1.00000000000000     
     2.7816441197367707    1.6059761629571814    0.0000000000000000
    -2.7816441197367707    1.6059761629571814    0.0000000000000000
     0.0000000000000000    0.0000000000000000   20.0000000000000000
   Ga   N 
     1     1
Direct
  0.3333336248597831  0.6666663750741577  0.5000000000000000
  0.6666663751424551  0.3333336249273628  0.5000000000000000
