   PREC  = Accurate
  ISTART = 0 
 ICHARG  = 2
 PSTRESS = 0
  ENCUT  = 500
  ISMEAR = 0
  EDIFF  = 1E-8  
  NSW    = 0
 IBRION  = -1
 ISIF    = 2
LAECHG   = .TRUE.