Automatically generated mesh
      153
Reciprocal lattice
    0.00000000000000    0.00000000000000    0.00000000000000             1
    0.25000000000000    0.00000000000000    0.00000000000000             6
    0.50000000000000    0.00000000000000    0.00000000000000             3
    0.25000000000000    0.25000000000000    0.00000000000000             6
    0.00000000000000    0.00000000000000    0.25000000000000             2
    0.25000000000000    0.00000000000000    0.25000000000000             6
    0.50000000000000    0.00000000000000    0.25000000000000             6
   -0.25000000000000    0.00000000000000    0.25000000000000             6
    0.25000000000000    0.25000000000000    0.25000000000000            12
    0.00000000000000    0.00000000000000    0.50000000000000             1
    0.25000000000000    0.00000000000000    0.50000000000000             6
    0.50000000000000    0.00000000000000    0.50000000000000             3
    0.25000000000000    0.25000000000000    0.50000000000000             6
   0.00000000  0.00000000  0.00000000       0.000
   0.00000000  0.00000000  0.02631579       0.000
   0.00000000  0.00000000  0.05263158       0.000
   0.00000000  0.00000000  0.07894737       0.000
   0.00000000  0.00000000  0.10526316       0.000
   0.00000000  0.00000000  0.13157895       0.000
   0.00000000  0.00000000  0.15789474       0.000
   0.00000000  0.00000000  0.18421053       0.000
   0.00000000  0.00000000  0.21052632       0.000
   0.00000000  0.00000000  0.23684211       0.000
   0.00000000  0.00000000  0.26315789       0.000
   0.00000000  0.00000000  0.28947368       0.000
   0.00000000  0.00000000  0.31578947       0.000
   0.00000000  0.00000000  0.34210526       0.000
   0.00000000  0.00000000  0.36842105       0.000
   0.00000000  0.00000000  0.39473684       0.000
   0.00000000  0.00000000  0.42105263       0.000
   0.00000000  0.00000000  0.44736842       0.000
   0.00000000  0.00000000  0.47368421       0.000
   0.00000000  0.00000000  0.50000000       0.000
   0.00000000  0.00000000  0.50000000       0.000
  -0.01752632  0.03510526  0.50000000       0.000
  -0.03505263  0.07021053  0.50000000       0.000
  -0.05257895  0.10531579  0.50000000       0.000
  -0.07010526  0.14042105  0.50000000       0.000
  -0.08763158  0.17552632  0.50000000       0.000
  -0.10515789  0.21063158  0.50000000       0.000
  -0.12268421  0.24573684  0.50000000       0.000
  -0.14021053  0.28084211  0.50000000       0.000
  -0.15773684  0.31594737  0.50000000       0.000
  -0.17526316  0.35105263  0.50000000       0.000
  -0.19278947  0.38615789  0.50000000       0.000
  -0.21031579  0.42126316  0.50000000       0.000
  -0.22784211  0.45636842  0.50000000       0.000
  -0.24536842  0.49147368  0.50000000       0.000
  -0.26289474  0.52657895  0.50000000       0.000
  -0.28042105  0.56168421  0.50000000       0.000
  -0.29794737  0.59678947  0.50000000       0.000
  -0.31547368  0.63189474  0.50000000       0.000
  -0.33300000  0.66700000  0.50000000       0.000
  -0.33300000  0.66700000  0.50000000       0.000
  -0.33300000  0.66700000  0.47368421       0.000
  -0.33300000  0.66700000  0.44736842       0.000
  -0.33300000  0.66700000  0.42105263       0.000
  -0.33300000  0.66700000  0.39473684       0.000
  -0.33300000  0.66700000  0.36842105       0.000
  -0.33300000  0.66700000  0.34210526       0.000
  -0.33300000  0.66700000  0.31578947       0.000
  -0.33300000  0.66700000  0.28947368       0.000
  -0.33300000  0.66700000  0.26315789       0.000
  -0.33300000  0.66700000  0.23684211       0.000
  -0.33300000  0.66700000  0.21052632       0.000
  -0.33300000  0.66700000  0.18421053       0.000
  -0.33300000  0.66700000  0.15789474       0.000
  -0.33300000  0.66700000  0.13157895       0.000
  -0.33300000  0.66700000  0.10526316       0.000
  -0.33300000  0.66700000  0.07894737       0.000
  -0.33300000  0.66700000  0.05263158       0.000
  -0.33300000  0.66700000  0.02631579       0.000
  -0.33300000  0.66700000  0.00000000       0.000
  -0.33300000  0.66700000  0.00000000       0.000
  -0.31547368  0.63189474  0.00000000       0.000
  -0.29794737  0.59678947  0.00000000       0.000
  -0.28042105  0.56168421  0.00000000       0.000
  -0.26289474  0.52657895  0.00000000       0.000
  -0.24536842  0.49147368  0.00000000       0.000
  -0.22784211  0.45636842  0.00000000       0.000
  -0.21031579  0.42126316  0.00000000       0.000
  -0.19278947  0.38615789  0.00000000       0.000
  -0.17526316  0.35105263  0.00000000       0.000
  -0.15773684  0.31594737  0.00000000       0.000
  -0.14021053  0.28084211  0.00000000       0.000
  -0.12268421  0.24573684  0.00000000       0.000
  -0.10515789  0.21063158  0.00000000       0.000
  -0.08763158  0.17552632  0.00000000       0.000
  -0.07010526  0.14042105  0.00000000       0.000
  -0.05257895  0.10531579  0.00000000       0.000
  -0.03505263  0.07021053  0.00000000       0.000
  -0.01752632  0.03510526  0.00000000       0.000
   0.00000000  0.00000000  0.00000000       0.000
   0.00000000  0.00000000  0.00000000       0.000
   0.00000000  0.02631579  0.00000000       0.000
   0.00000000  0.05263158  0.00000000       0.000
   0.00000000  0.07894737  0.00000000       0.000
   0.00000000  0.10526316  0.00000000       0.000
   0.00000000  0.13157895  0.00000000       0.000
   0.00000000  0.15789474  0.00000000       0.000
   0.00000000  0.18421053  0.00000000       0.000
   0.00000000  0.21052632  0.00000000       0.000
   0.00000000  0.23684211  0.00000000       0.000
   0.00000000  0.26315789  0.00000000       0.000
   0.00000000  0.28947368  0.00000000       0.000
   0.00000000  0.31578947  0.00000000       0.000
   0.00000000  0.34210526  0.00000000       0.000
   0.00000000  0.36842105  0.00000000       0.000
   0.00000000  0.39473684  0.00000000       0.000
   0.00000000  0.42105263  0.00000000       0.000
   0.00000000  0.44736842  0.00000000       0.000
   0.00000000  0.47368421  0.00000000       0.000
   0.00000000  0.50000000  0.00000000       0.000
   0.00000000  0.50000000  0.00000000       0.000
   0.00000000  0.50000000  0.02631579       0.000
   0.00000000  0.50000000  0.05263158       0.000
   0.00000000  0.50000000  0.07894737       0.000
   0.00000000  0.50000000  0.10526316       0.000
   0.00000000  0.50000000  0.13157895       0.000
   0.00000000  0.50000000  0.15789474       0.000
   0.00000000  0.50000000  0.18421053       0.000
   0.00000000  0.50000000  0.21052632       0.000
   0.00000000  0.50000000  0.23684211       0.000
   0.00000000  0.50000000  0.26315789       0.000
   0.00000000  0.50000000  0.28947368       0.000
   0.00000000  0.50000000  0.31578947       0.000
   0.00000000  0.50000000  0.34210526       0.000
   0.00000000  0.50000000  0.36842105       0.000
   0.00000000  0.50000000  0.39473684       0.000
   0.00000000  0.50000000  0.42105263       0.000
   0.00000000  0.50000000  0.44736842       0.000
   0.00000000  0.50000000  0.47368421       0.000
   0.00000000  0.50000000  0.50000000       0.000
   0.00000000  0.50000000  0.50000000       0.000
  -0.01752632  0.50878947  0.50000000       0.000
  -0.03505263  0.51757895  0.50000000       0.000
  -0.05257895  0.52636842  0.50000000       0.000
  -0.07010526  0.53515789  0.50000000       0.000
  -0.08763158  0.54394737  0.50000000       0.000
  -0.10515789  0.55273684  0.50000000       0.000
  -0.12268421  0.56152632  0.50000000       0.000
  -0.14021053  0.57031579  0.50000000       0.000
  -0.15773684  0.57910526  0.50000000       0.000
  -0.17526316  0.58789474  0.50000000       0.000
  -0.19278947  0.59668421  0.50000000       0.000
  -0.21031579  0.60547368  0.50000000       0.000
  -0.22784211  0.61426316  0.50000000       0.000
  -0.24536842  0.62305263  0.50000000       0.000
  -0.26289474  0.63184211  0.50000000       0.000
  -0.28042105  0.64063158  0.50000000       0.000
  -0.29794737  0.64942105  0.50000000       0.000
  -0.31547368  0.65821053  0.50000000       0.000
  -0.33300000  0.66700000  0.50000000       0.000
