POSCAR-bak                              
   1.00000000000000     
     3.2372448081513139   -0.0000000000000000    0.0000000000000000
    -1.6186224040756569    2.8035362421205483   -0.0000000000000000
    -0.0000000000000000    0.0000000000000000    5.2994916580559428
   Zn   O    Ga   N 
     1     1     1     1
Direct
  0.0000000000000000  0.0000000000000000  0.5770997279591090
  0.6666667459999971  0.3333333429999996  0.4282854893879324
  0.6666667459999971  0.3333333429999996  0.0603152591347938
  0.0000000000000000  0.0000000000000000  0.9555495325181711
 
  0.00000000E+00  0.00000000E+00  0.00000000E+00
  0.00000000E+00  0.00000000E+00  0.00000000E+00
  0.00000000E+00  0.00000000E+00  0.00000000E+00
  0.00000000E+00  0.00000000E+00  0.00000000E+00
