Automatically generated mesh
      70
Reciprocal lattice
    0.00000000000000    0.00000000000000    0.00000000000000             1
    0.12500000000000    0.00000000000000    0.00000000000000             6
    0.25000000000000    0.00000000000000    0.00000000000000             6
    0.37500000000000    0.00000000000000    0.00000000000000             6
    0.50000000000000    0.00000000000000    0.00000000000000             3
    0.12500000000000    0.12500000000000    0.00000000000000             6
    0.25000000000000    0.12500000000000    0.00000000000000            12
    0.37500000000000    0.12500000000000    0.00000000000000            12
    0.25000000000000    0.25000000000000    0.00000000000000             6
    0.37500000000000    0.25000000000000    0.00000000000000             6
   0.00000000  0.00000000  0.00000000      0.0
   0.00000000  0.02631579  0.00000000      0.0
   0.00000000  0.05263158  0.00000000      0.0
   0.00000000  0.07894737  0.00000000      0.0
   0.00000000  0.10526316  0.00000000      0.0
   0.00000000  0.13157895  0.00000000      0.0
   0.00000000  0.15789474  0.00000000      0.0
   0.00000000  0.18421053  0.00000000      0.0
   0.00000000  0.21052632  0.00000000      0.0
   0.00000000  0.23684211  0.00000000      0.0
   0.00000000  0.26315789  0.00000000      0.0
   0.00000000  0.28947368  0.00000000      0.0
   0.00000000  0.31578947  0.00000000      0.0
   0.00000000  0.34210526  0.00000000      0.0
   0.00000000  0.36842105  0.00000000      0.0
   0.00000000  0.39473684  0.00000000      0.0
   0.00000000  0.42105263  0.00000000      0.0
   0.00000000  0.44736842  0.00000000      0.0
   0.00000000  0.47368421  0.00000000      0.0
   0.00000000  0.50000000  0.00000000      0.0
   0.00000000  0.50000000  0.00000000      0.0
  -0.01752632  0.50873684  0.00000000      0.0
  -0.03505263  0.51747368  0.00000000      0.0
  -0.05257895  0.52621053  0.00000000      0.0
  -0.07010526  0.53494737  0.00000000      0.0
  -0.08763158  0.54368421  0.00000000      0.0
  -0.10515789  0.55242105  0.00000000      0.0
  -0.12268421  0.56115789  0.00000000      0.0
  -0.14021053  0.56989474  0.00000000      0.0
  -0.15773684  0.57863158  0.00000000      0.0
  -0.17526316  0.58736842  0.00000000      0.0
  -0.19278947  0.59610526  0.00000000      0.0
  -0.21031579  0.60484211  0.00000000      0.0
  -0.22784211  0.61357895  0.00000000      0.0
  -0.24536842  0.62231579  0.00000000      0.0
  -0.26289474  0.63105263  0.00000000      0.0
  -0.28042105  0.63978947  0.00000000      0.0
  -0.29794737  0.64852632  0.00000000      0.0
  -0.31547368  0.65726316  0.00000000      0.0
  -0.33300000  0.66600000  0.00000000      0.0
  -0.33300000  0.66600000  0.00000000      0.0
  -0.31547368  0.63094737  0.00000000      0.0
  -0.29794737  0.59589474  0.00000000      0.0
  -0.28042105  0.56084211  0.00000000      0.0
  -0.26289474  0.52578947  0.00000000      0.0
  -0.24536842  0.49073684  0.00000000      0.0
  -0.22784211  0.45568421  0.00000000      0.0
  -0.21031579  0.42063158  0.00000000      0.0
  -0.19278947  0.38557895  0.00000000      0.0
  -0.17526316  0.35052632  0.00000000      0.0
  -0.15773684  0.31547368  0.00000000      0.0
  -0.14021053  0.28042105  0.00000000      0.0
  -0.12268421  0.24536842  0.00000000      0.0
  -0.10515789  0.21031579  0.00000000      0.0
  -0.08763158  0.17526316  0.00000000      0.0
  -0.07010526  0.14021053  0.00000000      0.0
  -0.05257895  0.10515789  0.00000000      0.0
  -0.03505263  0.07010526  0.00000000      0.0
  -0.01752632  0.03505263  0.00000000      0.0
   0.00000000  0.00000000  0.00000000      0.0
