PREC=Acccurate
ENCUT=400
EDIFF=1E-5
EDIFFG=-0.01
IBRION=-1
ISIF=2
NSW=0
ISMEAR=0
LCHARG=.TRUE.
LWAVE=.TRUE.
NELM=100
LORBIT=11
LCHARG=2
ISYM=0
